200
150
100
100
99
98
98
97
97
96
96
96
95
95
94
92
92
91
91
91
91
91
91
90
90
90
89
89
88
88
87
87
86
85
82
81
81
81
81
80
80
80
80
79
79
78
78
78
78
77
77
77
77
76
75
74
74
74
74
74
73
73
73
73
73
71
70
70
70
69
69
69
69
68
68
67
66
64
64
64
63
61
59
58
58
57
57
55
54
54
52
52
52
52
52
51
50
50
48
48
47
47
47
46
45
45
45
44
43
43
43
42
41
40
40
39
39
38
38
38
38
36
36
34
34
34
33
33
32
32
32
32
31
31
31
30
30
30
28
28
26
26
26
26
26
26
25
25
25
25
24
24
23
23
23
20
20
20
20
20
18
17
16
16
16
16
15
15
14
13
13
12
12
12
11
11
11
10
10
10
9
9
8
8
6
5
5
4
4
4
4
4
3
3
3
2
2
2
1
1
1
1
